<?xml version = "1.0" encoding="UTF-8" standalone="yes"?>
<CPLEXSolution version="1.2">
 <header
   problemName="mknap2_cut_n9"
   objectiveValue="2350.363636363596"
   solutionTypeValue="1"
   solutionTypeString="basic"
   solutionStatusValue="1"
   solutionStatusString="optimal"
   solutionMethodString="dual"
   primalFeasible="1"
   dualFeasible="1"
   simplexIterations="2"
   writeLevel="1"/>
 <quality
   epRHS="9.9999999999999995e-07"
   epOpt="9.9999999999999995e-07"
   maxPrimalInfeas="0"
   maxDualInfeas="0"
   maxPrimalResidual="5.5067062021407764e-14"
   maxDualResidual="7.673861546209082e-13"
   maxX="1"
   maxPi="606.90909090909145"
   maxSlack="295.05454545454165"
   maxRedCost="1300"
   kappa="6.8274209483776449"/>
 <linearConstraints>
  <constraint name="c0" index="0" status="BS" slack="244.14545454545262" dual="-0"/>
  <constraint name="c1" index="1" status="BS" slack="295.05454545454165" dual="-0"/>
  <constraint name="c2" index="2" status="BS" slack="70.090909090908525" dual="-0"/>
  <constraint name="c3" index="3" status="BS" slack="138.81818181818261" dual="-0"/>
  <constraint name="c4" index="4" status="BS" slack="159.81818181818204" dual="-0"/>
  <constraint name="c5" index="5" status="BS" slack="183.81818181818198" dual="-0"/>
  <constraint name="c6" index="6" status="BS" slack="25.654545454546167" dual="-0"/>
  <constraint name="c7" index="7" status="BS" slack="63.600000000000982" dual="-0"/>
  <constraint name="c8" index="8" status="BS" slack="76.490909090908957" dual="-0"/>
  <constraint name="c9" index="9" status="BS" slack="79.363636363636118" dual="-0"/>
  <constraint name="cut_1" index="10" status="LL" slack="0" dual="465.45454545454771"/>
  <constraint name="cut_2" index="11" status="BS" slack="0.036363636363711482" dual="-0"/>
  <constraint name="cut_3" index="12" status="LL" slack="0" dual="181.72727272727815"/>
  <constraint name="cut_4" index="13" status="BS" slack="0.20000000000001034" dual="-0"/>
  <constraint name="cut_5" index="14" status="BS" slack="0.16363636363632494" dual="-0"/>
  <constraint name="cut_6" index="15" status="LL" slack="0" dual="15.636363636362828"/>
  <constraint name="cut_7" index="16" status="BS" slack="0.32727272727271317" dual="-0"/>
  <constraint name="cut_8" index="17" status="BS" slack="0.28727272727274739" dual="-0"/>
  <constraint name="cut_9" index="18" status="LL" slack="0" dual="606.90909090909145"/>
 </linearConstraints>
 <variables>
  <variable name="x0" index="0" status="LL" value="0" reducedCost="-213.81818181818551"/>
  <variable name="x1" index="1" status="LL" value="0" reducedCost="-149.63636363636877"/>
  <variable name="x2" index="2" status="LL" value="0" reducedCost="-732.3636363636416"/>
  <variable name="x3" index="3" status="BS" value="0.20000000000000984" reducedCost="0"/>
  <variable name="x4" index="4" status="UL" value="1" reducedCost="300"/>
  <variable name="x5" index="5" status="LL" value="0" reducedCost="-255.36363636363905"/>
  <variable name="x6" index="6" status="LL" value="0" reducedCost="-873.27272727273044"/>
  <variable name="x7" index="7" status="LL" value="0" reducedCost="-705.72727272727434"/>
  <variable name="x8" index="8" status="LL" value="0" reducedCost="-807.18181818182234"/>
  <variable name="x9" index="9" status="BS" value="0.83636363636369082" reducedCost="0"/>
  <variable name="x10" index="10" status="LL" value="0" reducedCost="-473.72727272727496"/>
  <variable name="x11" index="11" status="BS" value="0.56363636363640268" reducedCost="0"/>
  <variable name="x12" index="12" status="LL" value="0" reducedCost="-338.18181818182211"/>
  <variable name="x13" index="13" status="UL" value="1" reducedCost="1300"/>
  <variable name="x14" index="14" status="BS" value="0.16363636363623829" reducedCost="0"/>
 </variables>
 <objectiveValues>
  <objective index="0" name="" value="2350.363636363596"/>
 </objectiveValues>
</CPLEXSolution>
